50 12521

496
307
308
92
117
336
379
207
473
169
48
429
309
79
255
274
406
232
427
317
295
456
274
152
371
378
495
103
302
410
366
395
239
386
159
469
247
423
142
495
214
379
498
478
483
472
188
317
39
367
